peakDumbCharging = 7400; 
Machine = anon_enum(16); 
machineSpeed = [3700,3700,3700,3700,3700,3700,3700,3700,3700,3700,3700,3700,3700,3700,3700,3700]; 
machineLoad = [3700,3700,3700,3700,3700,3700,3700,3700,3700,3700,3700,3700,3700,3700,3700,3700]; 
Car = anon_enum(8); 
demandCar = [5880,16080,3520,10600,6120,9080,11000,5320]; 
arrivalCar = [64,62,56,52,47,47,43,41]; 
departureCar = [66,68,59,56,51,53,47,43]; 
